certificates/rado_a14_c200_N37.cnf
c Rad2 upper bound instance: x1 + 14*x2 - x3 = 200, interval [1,37]
p cnf 37 194
1 11 15 0
-1 -11 -15 0
1 16 25 0
-1 -16 -25 0
2 12 15 0
-2 -12 -15 0
2 16 26 0
-2 -16 -26 0
3 13 15 0
-3 -13 -15 0
3 16 27 0
-3 -16 -27 0
4 14 15 0
-4 -14 -15 0
4 16 28 0
-4 -16 -28 0
1 5 14 0
-1 -5 -14 0
5 15 0
-5 -15 0
5 16 29 0
-5 -16 -29 0
2 6 14 0
-2 -6 -14 0
6 15 16 0
-6 -15 -16 0
6 16 30 0
-6 -16 -30 0
3 7 14 0
-3 -7 -14 0
7 15 17 0
-7 -15 -17 0
7 16 31 0
-7 -16 -31 0
4 8 14 0
-4 -8 -14 0
8 15 18 0
-8 -15 -18 0
8 16 32 0
-8 -16 -32 0
5 9 14 0
-5 -9 -14 0
9 15 19 0
-9 -15 -19 0
9 16 33 0
-9 -16 -33 0
6 10 14 0
-6 -10 -14 0
10 15 20 0
-10 -15 -20 0
10 16 34 0
-10 -16 -34 0
7 11 14 0
-7 -11 -14 0
11 15 21 0
-11 -15 -21 0
11 16 35 0
-11 -16 -35 0
8 12 14 0
-8 -12 -14 0
12 15 22 0
-12 -15 -22 0
12 16 36 0
-12 -16 -36 0
9 13 14 0
-9 -13 -14 0
13 15 23 0
-13 -15 -23 0
13 16 37 0
-13 -16 -37 0
10 14 0
-10 -14 0
14 15 24 0
-14 -15 -24 0
11 14 15 0
-11 -14 -15 0
15 25 0
-15 -25 0
12 14 16 0
-12 -14 -16 0
15 16 26 0
-15 -16 -26 0
13 14 17 0
-13 -14 -17 0
15 17 27 0
-15 -17 -27 0
14 18 0
-14 -18 0
15 18 28 0
-15 -18 -28 0
1 13 19 0
-1 -13 -19 0
14 15 19 0
-14 -15 -19 0
15 19 29 0
-15 -19 -29 0
2 13 20 0
-2 -13 -20 0
14 16 20 0
-14 -16 -20 0
15 20 30 0
-15 -20 -30 0
3 13 21 0
-3 -13 -21 0
14 17 21 0
-14 -17 -21 0
15 21 31 0
-15 -21 -31 0
4 13 22 0
-4 -13 -22 0
14 18 22 0
-14 -18 -22 0
15 22 32 0
-15 -22 -32 0
5 13 23 0
-5 -13 -23 0
14 19 23 0
-14 -19 -23 0
15 23 33 0
-15 -23 -33 0
6 13 24 0
-6 -13 -24 0
14 20 24 0
-14 -20 -24 0
15 24 34 0
-15 -24 -34 0
7 13 25 0
-7 -13 -25 0
14 21 25 0
-14 -21 -25 0
15 25 35 0
-15 -25 -35 0
8 13 26 0
-8 -13 -26 0
14 22 26 0
-14 -22 -26 0
15 26 36 0
-15 -26 -36 0
9 13 27 0
-9 -13 -27 0
14 23 27 0
-14 -23 -27 0
15 27 37 0
-15 -27 -37 0
10 13 28 0
-10 -13 -28 0
14 24 28 0
-14 -24 -28 0
11 13 29 0
-11 -13 -29 0
14 25 29 0
-14 -25 -29 0
12 13 30 0
-12 -13 -30 0
14 26 30 0
-14 -26 -30 0
13 31 0
-13 -31 0
14 27 31 0
-14 -27 -31 0
13 14 32 0
-13 -14 -32 0
14 28 32 0
-14 -28 -32 0
1 12 33 0
-1 -12 -33 0
13 15 33 0
-13 -15 -33 0
14 29 33 0
-14 -29 -33 0
2 12 34 0
-2 -12 -34 0
13 16 34 0
-13 -16 -34 0
14 30 34 0
-14 -30 -34 0
3 12 35 0
-3 -12 -35 0
13 17 35 0
-13 -17 -35 0
14 31 35 0
-14 -31 -35 0
4 12 36 0
-4 -12 -36 0
13 18 36 0
-13 -18 -36 0
14 32 36 0
-14 -32 -36 0
5 12 37 0
-5 -12 -37 0
13 19 37 0
-13 -19 -37 0
14 33 37 0
-14 -33 -37 0
