certificates/rado_a14_c200_N37.drat
14 -34 -37 0
-14 -35 -37 0
-35 -36 -37 0
-16 -36 -37 0
34 16 -36 0
-36 -37 0
d -35 -36 -37 0
16 -37 0
-37 0
15 35 -16 0
-15 -16 0
-16 0
13 0
-31 0
7 0
-25 0
15 0
1 0
-5 0
-3 0
-23 0
-33 0
-17 0
-19 0
-11 0
12 0
29 0
27 0
14 0
9 0
35 0
-2 0
-22 0
-30 0
0
